Route 1: 0 4 31 72 58 16 63 21 92 23 51 0
Route 2: 0 78 46 40 75 28 43 73 96 0
Route 3: 0 84 64 1 48 62 95 36 100 60 61 89 0
Route 4: 0 90 24 56 32 98 69 44 14 68 0
Route 5: 0 52 81 88 93 15 76 0
Route 6: 0 8 87 91 74 82 13 42 25 94 54 97 0
Route 7: 0 59 7 19 10 66 18 83 99 0
Route 8: 0 85 55 71 22 47 34 41 11 65 12 5 26 0
Route 9: 0 37 39 45 9 27 57 0
Route 10: 0 33 70 79 53 6 77 0
Route 11: 0 17 29 80 35 38 30 2 0
Route 12: 0 49 86 3 67 20 50 0
